13829
1 0 1 0 0 1 1 0 1 1 0 1 0 0 0 0 0 1 0 0 1 0 1 0 1 0 0 0 0 0 
20 11 20 2 20 5 2 9 8 17 22 8 8 20 17 8 17 17 5 11 2 0 5 17 5 8 2 24 5 24 5 11 6 11 20 20 24 24 0 2 0 8 24 8 24 17 0 20 11 8 5 2 17 5 20 20 17 11 0 17 0 5 20 11 11 11 9 0 5 9 20 6 11 17 24 8 9 20 2 24 20 0 20 17 17 17 17 0 20 5 2 24 17 11 17 5 2 2 11 20 8 17 17 11 2 5 17 11 8 8 17 2 2 11 11 11 24 24 24 24 5 8 11 20 8 0 5 9 0 5 0 11 24 5 8 8 0 5 20 0 0 8 20 2 8 11 11 5 2 5 
